g3 0 1 0	# problem csched1
 77 23 1 0 13	# vars, constraints, objectives, ranges, eqns
 1 0	# nonlinear constraints, objectives
 0 0	# network constraints: nonlinear, linear
 8 0 0	# nonlinear vars in constraints, objectives, both
 0 0 0 1	# linear network variables; functions; arith, flags
 63 0 0 0 0	# discrete variables: binary, integer, nonlinear (b,c,o)
 174 1	# nonzeros in Jacobian, gradients
 3 6	# max name lengths: constraints, variables
 0 0 0 0 0	# common exprs: b,c,o,c1,o1
b
2 0
2 0
2 0
0 1e-2 20
0 1e-2 20
0 1e-2 20
2 0
3
2 0
2 0
2 0
2 0
2 0
2 0
0 0 1
0 0 1
0 0 1
0 0 1
0 0 1
0 0 1
0 0 1
0 0 1
0 0 1
0 0 1
0 0 1
0 0 1
0 0 1
0 0 1
0 0 1
0 0 1
0 0 1
0 0 1
0 0 1
0 0 1
0 0 1
0 0 1
0 0 1
0 0 1
0 0 1
0 0 1
0 0 1
0 0 1
0 0 1
0 0 1
0 0 1
0 0 1
0 0 1
0 0 1
0 0 1
0 0 1
0 0 1
0 0 1
0 0 1
0 0 1
0 0 1
0 0 1
0 0 1
0 0 1
0 0 1
0 0 1
0 0 1
0 0 1
0 0 1
0 0 1
0 0 1
0 0 1
0 0 1
0 0 1
0 0 1
0 0 1
0 0 1
0 0 1
0 0 1
0 0 1
0 0 1
0 0 1
0 0 1
x4
3 1
4 1
5 1
6 100
r
4 0
4 0
4 0
4 0
1 0
1 0
1 0
4 0
4 0
4 0
4 -1
4 -1
4 -1
4 0
4 0
4 0
1 0
1 1.5e2
1 1.5e2
1 1.5e2
2 1
2 1
2 1
C0
o0
o16
o2
v6
v7
o16
o54
9
o2
o0
o2
n4.16e5
o16
o44
o16
o3
o2
n.1
v0
v3
n4.16e5
v3
o2
n3.744e4
v0
o2
n-100
v3
o2
o0
o2
n124615.384615385
o16
o44
o16
o3
o2
n.13
v1
v4
n124615.384615385
v4
o2
n9e3
v1
o2
n-90
v4
o2
o0
o2
n278666.666666667
o16
o44
o16
o3
o2
n9e-2
v2
v5
n278666.666666667
v5
o2
n1.584e4
v2
o2
n-80
v5
C1
n0
C2
n0
C3
n0
C4
n0
C5
n0
C6
n0
C7
n0
C8
n0
C9
n0
C10
n0
C11
n0
C12
n0
C13
n0
C14
n0
C15
n0
C16
n0
C17
n0
C18
n0
C19
n0
C20
n0
C21
n0
C22
n0
O0 0
n0
k76
4
8
12
16
20
24
32
33
35
37
39
41
43
45
48
50
52
54
56
58
60
62
64
66
68
70
72
74
76
78
80
82
84
86
88
91
93
95
97
99
101
103
105
107
109
111
113
115
117
119
121
123
125
127
129
131
134
136
138
140
142
144
146
148
150
152
154
156
158
160
162
164
166
168
170
172
J0 8
0 0
1 0
2 0
3 0
4 0
5 0
6 0
7 0
J1 3
0 -1.3e3
6 3.5e2
8 1
J2 3
1 -1e3
6 300
9 1
J3 3
2 -1.1e3
6 300
10 1
J4 2
6 -300
8 1
J5 2
6 -300
9 1
J6 2
6 -300
10 1
J7 22
3 1
14 -1e-2
15 -1
16 -2
17 -3
18 -4
19 -5
20 -6
21 -7
22 -8
23 -9
24 -10
25 -11
26 -12
27 -13
28 -14
29 -15
30 -16
31 -17
32 -18
33 -19
34 -20
J8 22
4 1
35 -1e-2
36 -1
37 -2
38 -3
39 -4
40 -5
41 -6
42 -7
43 -8
44 -9
45 -10
46 -11
47 -12
48 -13
49 -14
50 -15
51 -16
52 -17
53 -18
54 -19
55 -20
J9 22
5 1
56 -1e-2
57 -1
58 -2
59 -3
60 -4
61 -5
62 -6
63 -7
64 -8
65 -9
66 -10
67 -11
68 -12
69 -13
70 -14
71 -15
72 -16
73 -17
74 -18
75 -19
76 -20
J10 21
14 -1
15 -1
16 -1
17 -1
18 -1
19 -1
20 -1
21 -1
22 -1
23 -1
24 -1
25 -1
26 -1
27 -1
28 -1
29 -1
30 -1
31 -1
32 -1
33 -1
34 -1
J11 21
35 -1
36 -1
37 -1
38 -1
39 -1
40 -1
41 -1
42 -1
43 -1
44 -1
45 -1
46 -1
47 -1
48 -1
49 -1
50 -1
51 -1
52 -1
53 -1
54 -1
55 -1
J12 21
56 -1
57 -1
58 -1
59 -1
60 -1
61 -1
62 -1
63 -1
64 -1
65 -1
66 -1
67 -1
68 -1
69 -1
70 -1
71 -1
72 -1
73 -1
74 -1
75 -1
76 -1
J13 3
0 -1
3 -2
11 1
J14 3
1 -1
4 -3
12 1
J15 3
2 -1
5 -3
13 1
J16 4
6 -1
11 1
12 1
13 1
J17 2
0 1
14 1.5e2
J18 2
1 1
35 1.5e2
J19 2
2 1
56 1.5e2
J20 1
3 1
J21 1
4 1
J22 1
5 1
G0 1
7 1
